data/solutions/recovery/wellformed/moderate/flexible/wellformed_moderate_instance53/65.sol
Elapsed time: 0.03
Upper bound: 4303.0
Planning weighted value: 139570.0
C[0]=4303.0
C[1]=4194.0
C[2]=4148.0
C[3]=4050.0
C[4]=3644.0
y[0]=4
y[1]=1
y[2]=1
y[3]=0
y[4]=1
y[5]=3
y[6]=4
y[7]=1
y[8]=2
y[9]=1
y[10]=0
y[11]=4
y[12]=3
y[13]=2
y[14]=3
y[15]=1
y[16]=2
y[17]=1
y[18]=0
y[19]=3
