data/solutions/recovery/wellformed/moderate/flexible/wellformed_moderate_instance53/65.log

Log started (V12.6.3.0) Fri Apr 20 20:56:39 2018

New value for default parallel thread count: 1

Problem '/tmp/tmp2yJT6q.pyomo.lp' read.
Read time = 0.00 sec. (0.03 ticks)

Problem name         : /tmp/tmp2yJT6q.pyomo.lp
Objective sense      : Minimize
Variables            :     107  [Nneg: 1,  Binary: 100,  General Integer: 6]
Objective nonzeros   :       1
Linear constraints   :      51  [Less: 25,  Equal: 26]
  Nonzeros           :    1811
  RHS nonzeros       :      41

Variables            : Min LB: 0.000000         Max UB: 1.000000       
Objective nonzeros   : Min   : 1.000000         Max   : 1.000000       
Linear constraints   :
  Nonzeros           : Min   : 1.000000         Max   : 1636.000       
  RHS nonzeros       : Min   : 1.000000         Max   : 2.000000       
Tried aggregator 2 times.
MIP Presolve eliminated 20 rows and 5 columns.
Aggregator did 6 substitutions.
Reduced MIP has 25 rows, 96 columns, and 271 nonzeros.
Reduced MIP has 95 binaries, 1 generals, 0 SOSs, and 0 indicators.
Presolve time = 0.00 sec. (0.73 ticks)
Found incumbent of value 20339.000000 after 0.00 sec. (0.90 ticks)
Probing time = 0.00 sec. (0.08 ticks)
Cover probing fixed 0 vars, tightened 3 bounds.
Tried aggregator 1 time.
Reduced MIP has 25 rows, 96 columns, and 271 nonzeros.
Reduced MIP has 95 binaries, 1 generals, 0 SOSs, and 0 indicators.
Presolve time = 0.00 sec. (0.19 ticks)
Probing time = 0.00 sec. (0.06 ticks)
Clique table members: 19.
MIP emphasis: balance optimality and feasibility.
MIP search method: dynamic search.
Parallel mode: none, using 1 thread.
Root relaxation solution time = 0.00 sec. (0.08 ticks)

        Nodes                                         Cuts/
   Node  Left     Objective  IInf  Best Integer    Best Bound    ItCnt     Gap

*     0+    0                        20339.0000     1636.0000            91.96%
      0     0     4067.8000     8    20339.0000     4067.8000        6   80.00%
*     0+    0                         4674.0000     4067.8000            12.97%
      0     0     4103.7718    12     4674.0000       Cuts: 5       26   12.20%
      0     0     4156.2687    12     4674.0000       Cuts: 9       61   11.08%
*     0+    0                         4594.0000     4156.2687             9.53%
      0     0     4164.4305    17     4594.0000       Cuts: 4       67    9.35%
*     0+    0                         4348.0000     4164.4305             4.22%
      0     0     4183.7431    15     4348.0000       Cuts: 5       81    3.78%
      0     0     4184.0823    22     4348.0000       Cuts: 3       86    3.77%
      0     0     4184.5045    23     4348.0000       Cuts: 3       94    3.76%
      0     0     4189.8436    16     4348.0000       Cuts: 3      104    3.64%
      0     0     4215.7895    21     4348.0000    MIRcuts: 3      123    3.04%
      0     0     4268.7939     6     4348.0000       Cuts: 5      129    1.82%
*     0+    0                         4303.0000     4268.7939             0.79%
      0     0        cutoff           4303.0000     4268.7939      130    0.79%
Elapsed time = 0.01 sec. (8.42 ticks, tree = 0.01 MB, solutions = 5)

Mixed integer rounding cuts applied:  9
Zero-half cuts applied:  2
Gomory fractional cuts applied:  1

Root node processing (before b&c):
  Real time             =    0.01 sec. (8.42 ticks)
Sequential b&c:
  Real time             =    0.00 sec. (0.00 ticks)
                          ------------
Total (root+branch&cut) =    0.01 sec. (8.42 ticks)

Solution pool: 5 solutions saved.

MIP - Integer optimal solution:  Objective =  4.3030000000e+03
Solution time =    0.01 sec.  Iterations = 130  Nodes = 0
Deterministic time = 8.42 ticks  (564.12 ticks/sec)


Incumbent solution written to file '/tmp/tmpMct3IE.cplex.sol'.
